
Gurobi 7.5.2 (linux64) logging started Sat Jun 23 17:04:14 2018

Changed value of parameter LogFile to result/ilp/simNo_3-n_100-m_40-s_4-minVAF_0.05-cov_2000-k_1-fn_0.05-fp_0.0001-na_0.15.ILP.gurobiSolverLog
   Prev: gurobi.log  Default: 
Changed value of parameter TimeLimit to 86400.0
   Prev: 1e+100  Min: 0.0  Max: 1e+100  Default: 1e+100
Optimize a model with 1265601 rows, 330440 columns and 3489120 nonzeros
Variable types: 0 continuous, 330440 integer (330440 binary)
Coefficient statistics:
  Matrix range     [2e-03, 3e+00]
  Objective range  [1e-01, 9e+00]
  Bounds range     [1e+00, 1e+00]
  RHS range        [2e-01, 2e+00]
Found heuristic solution: objective -14498.06276
Presolve removed 333319 rows and 213650 columns (presolve time = 6s) ...
Presolve removed 333819 rows and 213650 columns (presolve time = 11s) ...
Presolve removed 334849 rows and 213650 columns (presolve time = 15s) ...
Presolve removed 334849 rows and 213650 columns (presolve time = 20s) ...
Presolve removed 334849 rows and 213650 columns (presolve time = 25s) ...
Presolve removed 334849 rows and 213650 columns (presolve time = 30s) ...
Presolve removed 334849 rows and 213650 columns (presolve time = 35s) ...
Presolve removed 334849 rows and 213650 columns (presolve time = 43s) ...
Presolve removed 334849 rows and 213650 columns (presolve time = 45s) ...
Presolve removed 334849 rows and 213650 columns
Presolve time: 45.25s
Presolved: 930752 rows, 116790 columns, 2581188 nonzeros
Variable types: 0 continuous, 116790 integer (116790 binary)
Presolve removed 0 rows and 0 columns (presolve time = 5s) ...
Presolved: 116790 rows, 1047542 columns, 2697978 nonzeros

Presolve removed 116790 rows and 1047542 columns

Root simplex log...

Iteration    Objective       Primal Inf.    Dual Inf.      Time
       0    3.7395626e+00   0.000000e+00   9.503800e+04     59s
    7013   -1.0471961e+02   0.000000e+00   7.289100e+04     60s
    9936   -1.3400627e+02   0.000000e+00   0.000000e+00     64s
    9936   -1.3400627e+02   0.000000e+00   0.000000e+00     67s

Root relaxation: objective -1.340063e+02, 9936 iterations, 17.63 seconds
Total elapsed time = 91.79s
Total elapsed time = 101.47s
Total elapsed time = 114.19s

    Nodes    |    Current Node    |     Objective Bounds      |     Work
 Expl Unexpl |  Obj  Depth IntInf | Incumbent    BestBd   Gap | It/Node Time

     0     0 -134.00627    0  608 -14498.063 -134.00627  99.1%     -  123s
H    0     0                    -172.9647956 -134.00627  22.5%     -  133s
     0     0 -138.51150    0  573 -172.96480 -138.51150  19.9%     -  151s
H    0     0                    -169.7318484 -138.51150  18.4%     -  161s
     0     0 -142.96836    0  505 -169.73185 -142.96836  15.8%     -  179s
     0     0 -144.33925    0  462 -169.73185 -144.33925  15.0%     -  202s
H    0     0                    -163.7571203 -144.33925  11.9%     -  210s
     0     0 -144.33925    0  455 -163.75712 -144.33925  11.9%     -  218s
     0     0 -144.33925    0  463 -163.75712 -144.33925  11.9%     -  235s
     0     0 -147.32662    0  370 -163.75712 -147.32662  10.0%     -  324s
     0     0 -147.32662    0  419 -163.75712 -147.32662  10.0%     -  337s
     0     0 -147.36755    0  607 -163.75712 -147.36755  10.0%     -  352s
     0     0 -147.36755    0  613 -163.75712 -147.36755  10.0%     -  367s
     0     0 -148.94309    0  525 -163.75712 -148.94309  9.05%     -  386s
     0     0 -148.94309    0  531 -163.75712 -148.94309  9.05%     -  401s
     0     0 -149.62854    0  664 -163.75712 -149.62854  8.63%     -  418s
     0     0 -149.62854    0  672 -163.75712 -149.62854  8.63%     -  431s
     0     0 -149.62854    0  542 -163.75712 -149.62854  8.63%     -  447s
     0     0 -149.89795    0  543 -163.75712 -149.89795  8.46%     -  464s
     0     0 -149.94126    0  585 -163.75712 -149.94126  8.44%     -  474s
     0     0 -150.00196    0  550 -163.75712 -150.00196  8.40%     -  484s
     0     0 -150.00196    0  551 -163.75712 -150.00196  8.40%     -  492s
     0     0 -152.61590    0  620 -163.75712 -152.61590  6.80%     -  508s
     0     0 -152.61590    0  629 -163.75712 -152.61590  6.80%     -  525s
     0     0 -153.43623    0  641 -163.75712 -153.43623  6.30%     -  543s
     0     0 -153.58560    0  706 -163.75712 -153.58560  6.21%     -  562s
     0     0 -153.88553    0  675 -163.75712 -153.88553  6.03%     -  574s
     0     0 -153.88553    0  676 -163.75712 -153.88553  6.03%     -  585s
     0     0 -154.52305    0  650 -163.75712 -154.52305  5.64%     -  603s
     0     0 -154.63066    0  646 -163.75712 -154.63066  5.57%     -  624s
     0     0 -154.63066    0  655 -163.75712 -154.63066  5.57%     -  634s
     0     0 -154.63066    0  622 -163.75712 -154.63066  5.57%     -  653s
     0     0 -154.63066    0  666 -163.75712 -154.63066  5.57%     -  670s
     0     0 -155.47426    0  709 -163.75712 -155.47426  5.06%     -  690s
     0     0 -156.02827    0  676 -163.75712 -156.02827  4.72%     -  706s
     0     0 -156.02827    0  681 -163.75712 -156.02827  4.72%     -  718s
     0     0 -157.03488    0  664 -163.75712 -157.03488  4.11%     -  738s
     0     0 -157.74616    0  573 -163.75712 -157.74616  3.67%     -  752s
     0     0 -157.74616    0  661 -163.75712 -157.74616  3.67%     -  763s
     0     0 -158.29993    0  678 -163.75712 -158.29993  3.33%     -  786s
     0     0 -158.41194    0  681 -163.75712 -158.41194  3.26%     -  803s
     0     0 -158.63037    0  669 -163.75712 -158.63037  3.13%     -  814s
     0     0 -158.63037    0  682 -163.75712 -158.63037  3.13%     -  822s
     0     0 -158.73900    0  671 -163.75712 -158.73900  3.06%     -  838s
     0     0 -158.74484    0  681 -163.75712 -158.74484  3.06%     -  852s
     0     0 -158.74484    0  683 -163.75712 -158.74484  3.06%     -  862s
     0     0 -159.24439    0  593 -163.75712 -159.24439  2.76%     -  918s
     0     0 -159.24439    0  302 -163.75712 -159.24439  2.76%     -  999s
     0     0 -159.24439    0  261 -163.75712 -159.24439  2.76%     - 1004s
     0     0 -159.24439    0  296 -163.75712 -159.24439  2.76%     - 1008s
     0     0 -159.24439    0  332 -163.75712 -159.24439  2.76%     - 1010s
     0     0 -159.24439    0  335 -163.75712 -159.24439  2.76%     - 1012s
     0     0 -159.24439    0  335 -163.75712 -159.24439  2.76%     - 1013s
     0     0 -160.76976    0   83 -163.75712 -160.76976  1.82%     - 1020s
     0     0 -160.76976    0  214 -163.75712 -160.76976  1.82%     - 1030s
     0     0 -160.76976    0  185 -163.75712 -160.76976  1.82%     - 1032s
     0     0 -160.76976    0  193 -163.75712 -160.76976  1.82%     - 1034s
     0     0 -160.76976    0  153 -163.75712 -160.76976  1.82%     - 1034s
     0     0 -160.76976    0  155 -163.75712 -160.76976  1.82%     - 1035s
     0     0 -161.19652    0   83 -163.75712 -161.19652  1.56%     - 1037s
     0     0 -161.19652    0  202 -163.75712 -161.19652  1.56%     - 1040s
     0     0 -161.19652    0  163 -163.75712 -161.19652  1.56%     - 1041s
     0     0 -161.19652    0  134 -163.75712 -161.19652  1.56%     - 1042s
     0     0 -161.19652    0  137 -163.75712 -161.19652  1.56%     - 1042s
     0     0 -161.31291    0  177 -163.75712 -161.31291  1.49%     - 1043s
     0     0 -161.31291    0  180 -163.75712 -161.31291  1.49%     - 1043s
     0     0 -161.31291    0   84 -163.75712 -161.31291  1.49%     - 1044s
     0     0 -161.31291    0   87 -163.75712 -161.31291  1.49%     - 1044s
     0     0 -161.31291    0   72 -163.75712 -161.31291  1.49%     - 1044s
     0     0 -161.31291    0   84 -163.75712 -161.31291  1.49%     - 1045s
     0     0 -161.31291    0   96 -163.75712 -161.31291  1.49%     - 1045s
     0     0 -161.31291    0   98 -163.75712 -161.31291  1.49%     - 1045s
     0     0     cutoff    0      -163.75712 -163.75712  0.00%     - 1046s

Cutting planes:
  Gomory: 5
  Implied bound: 1
  Clique: 4
  Zero half: 43

Explored 1 nodes (40456 simplex iterations) in 1047.06 seconds
Thread count was 1 (of 80 available processors)

Solution count 7: -163.757 -163.757 -163.757 ... -14498.1

Optimal solution found (tolerance 1.00e-04)
Best objective -1.637571203143e+02, best bound -1.637571203143e+02, gap 0.0000%
